Problem:    
Rows:       105
Columns:    45 (34 integer, 34 binary)
Non-zeros:  302
Status:     INTEGER OPTIMAL
Objective:  value = 15.413746 (MINimum)

   No.   Row name        Activity     Lower bound   Upper bound
------ ------------    ------------- ------------- -------------
     1 r.5                   2015.41             0               
     2 r.6                  -1984.59      -1993.09               
     3 r.7                   15.4137             0               
     4 r.8                   7.12131      -1992.17               
     5 r.9                   2015.41             0               
     6 r.10                  -1991.5      -1996.69               
     7 r.11                  15.4137             0               
     8 r.12                  11.8266      -1995.29               
     9 r.13                  15.4137             0               
    10 r.14                  3.47535      -1997.33               
    11 r.15                  2015.41             0               
    12 r.16                 -1984.59       -1997.5               
    13 r.17                  15.4137             0               
    14 r.18                  5.18965      -1998.29               
    15 r.19                  2015.41             0               
    16 r.20                 -1987.09      -1998.91               
    17 r.21                  15.4137             0               
    18 r.22                 0.998556      -1999.79               
    19 r.23                  2015.41             0               
    20 r.24                    -1999         -1999               
    21 r.25                        1             1             = 
    22 r.26                        1             1             = 
    23 r.27                        1             1             = 
    24 r.28                        1             1             = 
    25 r.29                        1             1             = 
    26 r.30                  1993.09        3.3094               
    27 r.31                 -1993.09      -1993.09               
    28 r.32                  4.70525       4.70525               
    29 r.33                 -4.70525      -1992.17               
    30 r.34                  1988.06        2.6738               
    31 r.35                 -1988.06      -1993.09               
    32 r.36                  8.29244        2.4993               
    33 r.37                 -8.29244      -1992.17               
    34 r.38                  1989.78        1.7143               
    35 r.39                 -1989.78      -1993.09               
    36 r.40                  5.79314       1.08789               
    37 r.41                 -5.79314      -1992.17               
    38 r.42                 -1985.58      -1988.89               
    39 r.43                  6.12275      -1981.85               
    40 r.44                 -1985.58      -1988.89               
    41 r.45                  6.12275      -1981.85               
    42 r.46                   6.9147        6.9147               
    43 r.47                  -6.9147      -1996.69               
    44 r.48                  1995.29       7.83486               
    45 r.49                 -1995.29      -1995.29               
    46 r.50                  1994.98        2.6738               
    47 r.51                 -1994.98      -1996.69               
    48 r.52                  3.58719        2.4993               
    49 r.53                 -3.58719      -1995.29               
    50 r.54                  1996.69        1.7143               
    51 r.55                 -1996.69      -1996.69               
    52 r.56                  1.08789       1.08789               
    53 r.57                 -1.08789      -1995.29               
    54 r.58                  -1992.5       -1992.5               
    55 r.59                   10.828      -1984.98               
    56 r.60                  -1992.5       -1992.5               
    57 r.61                   10.828      -1984.98               
    58 r.62                  11.9384        6.9147               
    59 r.63                 -11.9384      -1997.33               
    60 r.64                  1991.71       7.83486               
    61 r.65                 -1991.71       -1997.5               
    62 r.66                   5.0237        3.3094               
    63 r.67                  -5.0237      -1997.33               
    64 r.68                  1996.41       4.70525               
    65 r.69                 -1996.41       -1997.5               
    66 r.70                   1.7143        1.7143               
    67 r.71                  -1.7143      -1997.33               
    68 r.72                   1997.5       1.08789               
    69 r.73                  -1997.5       -1997.5               
    70 r.74                  2.47679      -1993.14               
    71 r.75                 -1985.58      -1987.19               
    72 r.76                  2.47679      -1993.14               
    73 r.77                 -1985.58      -1987.19               
    74 r.78                  10.2241        6.9147               
    75 r.79                 -10.2241      -1998.29               
    76 r.80                  1994.21       7.83486               
    77 r.81                 -1994.21      -1998.91               
    78 r.82                   3.3094        3.3094               
    79 r.83                  -3.3094      -1998.29               
    80 r.84                  1998.91       4.70525               
    81 r.85                 -1998.91      -1998.91               
    82 r.86                  1998.29        2.6738               
    83 r.87                 -1998.29      -1998.29               
    84 r.88                   2.4993        2.4993               
    85 r.89                  -2.4993      -1998.91               
    86 r.90                  4.19109      -1994.09               
    87 r.91                 -1988.08       -1988.6               
    88 r.92                  4.19109      -1994.09               
    89 r.93                 -1988.08       -1988.6               
    90 r.94                 -1985.58      -1988.89               
    91 r.95                  6.12275      -1981.85               
    92 r.96                 -1985.58      -1988.89               
    93 r.97                  6.12275      -1981.85               
    94 r.98                  -1992.5       -1992.5               
    95 r.99                   10.828      -1984.98               
    96 r.100                 -1992.5       -1992.5               
    97 r.101                  10.828      -1984.98               
    98 r.102                 2.47679      -1993.14               
    99 r.103                -1985.58      -1987.19               
   100 r.104                 2.47679      -1993.14               
   101 r.105                -1985.58      -1987.19               
   102 r.106                 4.19109      -1994.09               
   103 r.107                -1988.08       -1988.6               
   104 r.108                 4.19109      -1994.09               
   105 r.109                -1988.08       -1988.6               

   No. Column name       Activity     Lower bound   Upper bound
------ ------------    ------------- ------------- -------------
     1 tt                    15.4137             0               
     2 s_1_1        *              1             0             1 
     3 t_1_1                       0             0               
     4 s_2_1        *              0             0             1 
     5 t_2_1                 8.29244             0               
     6 s_1_2        *              1             0             1 
     7 t_1_2                  6.9147             0               
     8 s_2_2        *              0             0             1 
     9 t_2_2                 3.58719             0               
    10 s_1_3        *              0             0             1 
    11 t_1_3                 11.9384             0               
    12 s_2_3        *              1             0             1 
    13 t_2_3                       0             0               
    14 s_1_4        *              0             0             1 
    15 t_1_4                 10.2241             0               
    16 s_2_4        *              1             0             1 
    17 t_2_4                  2.4993             0               
    18 s_1_5        *              0             0             1 
    19 t_1_5                 14.4152             0               
    20 s_2_5        *              1             0             1 
    21 t_2_5                 14.4152             0               
    22 u_1_1_2      *              1             0             1 
    23 u_2_1_2      *              0             0             1 
    24 u_1_1_3      *              1             0             1 
    25 u_2_1_3      *              0             0             1 
    26 u_1_1_4      *              1             0             1 
    27 u_2_1_4      *              0             0             1 
    28 u_1_2_1      *              0             0             1 
    29 u_2_2_1      *              1             0             1 
    30 u_1_2_3      *              1             0             1 
    31 u_2_2_3      *              0             0             1 
    32 u_1_2_4      *              1             0             1 
    33 u_2_2_4      *              0             0             1 
    34 u_1_3_1      *              0             0             1 
    35 u_2_3_1      *              1             0             1 
    36 u_1_3_2      *              0             0             1 
    37 u_2_3_2      *              1             0             1 
    38 u_1_3_4      *              0             0             1 
    39 u_2_3_4      *              1             0             1 
    40 u_1_4_1      *              0             0             1 
    41 u_2_4_1      *              1             0             1 
    42 u_1_4_2      *              0             0             1 
    43 u_2_4_2      *              1             0             1 
    44 u_1_4_3      *              1             0             1 
    45 u_2_4_3      *              0             0             1 

Integer feasibility conditions:

KKT.PE: max.abs.err = 4.55e-13 on row 20
        max.rel.err = 1.10e-16 on row 20
        High quality

KKT.PB: max.abs.err = 1.47e-13 on row 52
        max.rel.err = 7.04e-14 on row 52
        High quality

End of output
